unsat
(:cnf-encoding-aux-vars        23
 :elim-unconstrained           4
 :max-memory                   18.85
 :memory                       18.46
 :nlsat-arith-var              9
 :nlsat-atoms                  112
 :nlsat-bool-var               44
 :nlsat-clauses                161
 :nlsat-conflicts              148
 :nlsat-decisions              138
 :nlsat-irrational-assignments 2
 :nlsat-propagations           1167
 :nlsat-stages                 207
 :num-allocs                   171405
 :rlimit-count                 43041
 :solve-eqs-elim-vars          47
 :solve-eqs-steps              139
 :time                         0.02
 :total-time                   0.03)
